c FILE: m250-10-2.dat
c
c AUTHOR: Marcelo de Souza
c
c DESCRIPTION: This is a random graph with 250 vertices.
c   Each of pair of vertices are made adjacent with probability p = 0.1.
c   The random seed used for its generation was 6244048966.
c
c May 7th, 2019
c
p edge 250 3085
e 1 13
e 1 29
e 1 30
e 1 32
e 1 34
e 1 40
e 1 43
e 1 52
e 1 102
e 1 109
e 1 118
e 1 121
e 1 133
e 1 137
e 1 146
e 1 147
e 1 165
e 1 178
e 1 206
e 1 209
e 1 219
e 1 243
e 1 249
e 2 5
e 2 21
e 2 28
e 2 31
e 2 45
e 2 51
e 2 56
e 2 65
e 2 67
e 2 80
e 2 89
e 2 93
e 2 97
e 2 103
e 2 115
e 2 124
e 2 127
e 2 132
e 2 136
e 2 158
e 2 177
e 2 194
e 2 213
e 2 234
e 2 236
e 2 239
e 3 7
e 3 12
e 3 20
e 3 25
e 3 43
e 3 46
e 3 70
e 3 77
e 3 91
e 3 101
e 3 109
e 3 116
e 3 117
e 3 130
e 3 138
e 3 146
e 3 166
e 3 189
e 3 192
e 3 193
e 3 198
e 3 207
e 3 208
e 3 220
e 3 231
e 3 234
e 3 236
e 3 237
e 4 8
e 4 10
e 4 15
e 4 20
e 4 28
e 4 50
e 4 66
e 4 78
e 4 84
e 4 86
e 4 104
e 4 106
e 4 111
e 4 126
e 4 128
e 4 132
e 4 135
e 4 150
e 4 154
e 4 164
e 4 184
e 4 190
e 4 194
e 4 195
e 4 213
e 4 218
e 4 233
e 5 23
e 5 57
e 5 65
e 5 68
e 5 94
e 5 106
e 5 114
e 5 120
e 5 143
e 5 155
e 5 162
e 5 166
e 5 178
e 5 184
e 5 196
e 5 206
e 6 7
e 6 13
e 6 29
e 6 40
e 6 42
e 6 60
e 6 67
e 6 111
e 6 121
e 6 131
e 6 134
e 6 158
e 6 162
e 6 166
e 6 178
e 6 193
e 6 207
e 6 229
e 6 234
e 6 240
e 7 16
e 7 29
e 7 35
e 7 55
e 7 73
e 7 75
e 7 96
e 7 102
e 7 111
e 7 115
e 7 119
e 7 122
e 7 139
e 7 156
e 7 167
e 7 175
e 7 177
e 7 188
e 7 204
e 7 240
e 8 15
e 8 29
e 8 48
e 8 68
e 8 73
e 8 78
e 8 82
e 8 84
e 8 85
e 8 92
e 8 114
e 8 115
e 8 117
e 8 119
e 8 127
e 8 129
e 8 149
e 8 163
e 8 172
e 8 194
e 8 208
e 8 210
e 8 227
e 8 231
e 8 235
e 8 239
e 8 250
e 9 13
e 9 17
e 9 21
e 9 43
e 9 64
e 9 78
e 9 80
e 9 95
e 9 100
e 9 109
e 9 114
e 9 128
e 9 129
e 9 140
e 9 154
e 9 160
e 9 162
e 9 169
e 9 170
e 9 173
e 9 179
e 9 188
e 9 197
e 9 231
e 9 246
e 10 14
e 10 20
e 10 27
e 10 38
e 10 57
e 10 59
e 10 73
e 10 87
e 10 93
e 10 116
e 10 133
e 10 136
e 10 143
e 10 154
e 10 163
e 10 165
e 10 186
e 10 194
e 10 204
e 10 216
e 10 217
e 10 230
e 10 234
e 10 249
e 11 21
e 11 25
e 11 29
e 11 40
e 11 43
e 11 45
e 11 51
e 11 59
e 11 62
e 11 64
e 11 76
e 11 83
e 11 101
e 11 102
e 11 109
e 11 110
e 11 114
e 11 119
e 11 136
e 11 137
e 11 142
e 11 148
e 11 157
e 11 159
e 11 186
e 11 199
e 11 205
e 11 208
e 11 222
e 11 225
e 11 242
e 11 248
e 11 250
e 12 33
e 12 48
e 12 65
e 12 80
e 12 98
e 12 107
e 12 138
e 12 140
e 12 171
e 12 177
e 12 180
e 12 194
e 12 199
e 12 213
e 12 228
e 12 236
e 13 14
e 13 21
e 13 27
e 13 42
e 13 44
e 13 45
e 13 67
e 13 68
e 13 75
e 13 85
e 13 90
e 13 93
e 13 94
e 13 101
e 13 116
e 13 133
e 13 139
e 13 144
e 13 159
e 13 160
e 13 163
e 13 164
e 13 165
e 13 169
e 13 175
e 13 177
e 13 183
e 13 188
e 13 189
e 13 194
e 13 233
e 13 241
e 14 15
e 14 20
e 14 21
e 14 28
e 14 41
e 14 42
e 14 61
e 14 67
e 14 97
e 14 100
e 14 111
e 14 113
e 14 121
e 14 122
e 14 128
e 14 143
e 14 170
e 14 174
e 14 222
e 14 243
e 15 60
e 15 80
e 15 84
e 15 94
e 15 110
e 15 113
e 15 132
e 15 139
e 15 141
e 15 142
e 15 143
e 15 147
e 15 158
e 15 165
e 15 183
e 15 193
e 15 203
e 15 214
e 15 217
e 15 221
e 15 224
e 15 246
e 16 30
e 16 33
e 16 42
e 16 55
e 16 59
e 16 60
e 16 75
e 16 99
e 16 101
e 16 104
e 16 106
e 16 107
e 16 111
e 16 115
e 16 118
e 16 122
e 16 126
e 16 127
e 16 131
e 16 158
e 16 178
e 16 192
e 16 195
e 16 196
e 16 204
e 16 235
e 16 247
e 16 248
e 17 22
e 17 26
e 17 32
e 17 45
e 17 48
e 17 60
e 17 72
e 17 83
e 17 150
e 17 155
e 17 165
e 17 166
e 17 169
e 17 176
e 17 207
e 17 210
e 17 225
e 17 231
e 17 232
e 17 238
e 17 239
e 17 240
e 17 248
e 17 249
e 18 20
e 18 23
e 18 33
e 18 35
e 18 39
e 18 45
e 18 60
e 18 67
e 18 69
e 18 83
e 18 93
e 18 95
e 18 99
e 18 100
e 18 107
e 18 109
e 18 128
e 18 133
e 18 148
e 18 160
e 18 169
e 18 180
e 18 182
e 18 189
e 18 199
e 18 206
e 18 207
e 18 213
e 18 218
e 18 224
e 18 232
e 18 241
e 18 245
e 18 246
e 19 23
e 19 39
e 19 43
e 19 62
e 19 66
e 19 88
e 19 91
e 19 98
e 19 99
e 19 116
e 19 120
e 19 130
e 19 133
e 19 136
e 19 156
e 19 161
e 19 163
e 19 168
e 19 175
e 19 182
e 19 190
e 19 192
e 19 196
e 19 205
e 19 207
e 19 208
e 19 212
e 19 223
e 19 224
e 19 225
e 19 242
e 20 27
e 20 32
e 20 38
e 20 45
e 20 60
e 20 64
e 20 101
e 20 107
e 20 109
e 20 111
e 20 124
e 20 125
e 20 127
e 20 131
e 20 139
e 20 155
e 20 162
e 20 177
e 20 186
e 20 198
e 20 204
e 20 207
e 20 212
e 20 221
e 20 229
e 20 231
e 20 233
e 20 248
e 20 250
e 21 40
e 21 45
e 21 48
e 21 56
e 21 69
e 21 72
e 21 91
e 21 113
e 21 114
e 21 119
e 21 127
e 21 145
e 21 168
e 21 172
e 21 175
e 21 195
e 21 208
e 21 220
e 21 223
e 21 224
e 21 232
e 21 233
e 21 250
e 22 29
e 22 58
e 22 64
e 22 69
e 22 80
e 22 91
e 22 104
e 22 113
e 22 133
e 22 136
e 22 137
e 22 158
e 22 174
e 22 190
e 22 193
e 22 198
e 22 205
e 22 206
e 22 225
e 22 229
e 23 47
e 23 55
e 23 58
e 23 60
e 23 81
e 23 96
e 23 98
e 23 125
e 23 126
e 23 143
e 23 151
e 23 161
e 23 183
e 23 187
e 23 194
e 23 206
e 23 240
e 24 25
e 24 42
e 24 50
e 24 57
e 24 64
e 24 78
e 24 86
e 24 112
e 24 119
e 24 121
e 24 130
e 24 142
e 24 144
e 24 150
e 24 188
e 24 203
e 24 208
e 24 215
e 24 224
e 24 230
e 24 237
e 24 247
e 25 32
e 25 37
e 25 42
e 25 43
e 25 59
e 25 75
e 25 76
e 25 77
e 25 102
e 25 129
e 25 134
e 25 145
e 25 155
e 25 161
e 25 164
e 25 167
e 25 195
e 25 216
e 25 227
e 25 245
e 25 246
e 26 32
e 26 54
e 26 61
e 26 69
e 26 73
e 26 76
e 26 93
e 26 102
e 26 104
e 26 113
e 26 116
e 26 133
e 26 142
e 26 146
e 26 173
e 26 184
e 26 191
e 26 196
e 26 201
e 26 211
e 26 222
e 27 29
e 27 40
e 27 64
e 27 68
e 27 77
e 27 80
e 27 93
e 27 94
e 27 96
e 27 111
e 27 121
e 27 142
e 27 148
e 27 150
e 27 155
e 27 158
e 27 163
e 27 172
e 27 183
e 27 192
e 27 206
e 27 207
e 27 211
e 27 226
e 27 229
e 27 239
e 27 240
e 28 34
e 28 82
e 28 90
e 28 142
e 28 143
e 28 150
e 28 184
e 28 190
e 28 203
e 28 217
e 28 242
e 28 246
e 28 249
e 29 38
e 29 49
e 29 56
e 29 77
e 29 83
e 29 86
e 29 87
e 29 104
e 29 106
e 29 107
e 29 126
e 29 148
e 29 159
e 29 161
e 29 163
e 29 172
e 29 187
e 29 188
e 29 190
e 29 192
e 29 196
e 29 221
e 29 226
e 29 228
e 30 56
e 30 100
e 30 107
e 30 128
e 30 193
e 30 197
e 30 205
e 30 213
e 30 214
e 30 227
e 30 233
e 30 235
e 30 241
e 30 247
e 31 33
e 31 43
e 31 66
e 31 76
e 31 96
e 31 109
e 31 114
e 31 132
e 31 133
e 31 134
e 31 137
e 31 152
e 31 163
e 31 184
e 31 202
e 31 204
e 31 217
e 31 224
e 32 34
e 32 36
e 32 39
e 32 46
e 32 47
e 32 54
e 32 55
e 32 66
e 32 67
e 32 69
e 32 82
e 32 89
e 32 94
e 32 95
e 32 96
e 32 119
e 32 127
e 32 173
e 32 190
e 32 199
e 32 203
e 32 210
e 32 216
e 32 224
e 32 231
e 33 35
e 33 43
e 33 51
e 33 73
e 33 83
e 33 95
e 33 98
e 33 106
e 33 117
e 33 122
e 33 168
e 33 183
e 33 186
e 33 198
e 33 206
e 33 218
e 33 227
e 33 238
e 34 38
e 34 48
e 34 50
e 34 73
e 34 74
e 34 94
e 34 98
e 34 114
e 34 116
e 34 117
e 34 124
e 34 129
e 34 136
e 34 138
e 34 139
e 34 145
e 34 149
e 34 157
e 34 178
e 34 188
e 34 197
e 34 198
e 34 208
e 34 220
e 34 232
e 34 246
e 34 250
e 35 50
e 35 52
e 35 54
e 35 59
e 35 61
e 35 74
e 35 76
e 35 81
e 35 111
e 35 113
e 35 138
e 35 143
e 35 160
e 35 161
e 35 180
e 35 201
e 35 224
e 36 70
e 36 74
e 36 108
e 36 110
e 36 117
e 36 120
e 36 133
e 36 144
e 36 146
e 36 147
e 36 156
e 36 168
e 36 182
e 36 183
e 36 189
e 36 191
e 36 198
e 36 229
e 36 230
e 36 235
e 37 44
e 37 48
e 37 65
e 37 66
e 37 70
e 37 86
e 37 91
e 37 96
e 37 98
e 37 99
e 37 103
e 37 109
e 37 112
e 37 136
e 37 144
e 37 152
e 37 160
e 37 164
e 37 166
e 37 173
e 37 179
e 37 196
e 37 207
e 37 218
e 37 221
e 37 247
e 38 41
e 38 51
e 38 55
e 38 66
e 38 69
e 38 84
e 38 86
e 38 88
e 38 98
e 38 102
e 38 105
e 38 112
e 38 120
e 38 124
e 38 143
e 38 150
e 38 166
e 38 180
e 38 190
e 38 198
e 38 199
e 38 212
e 38 217
e 38 229
e 38 231
e 39 50
e 39 55
e 39 63
e 39 66
e 39 83
e 39 116
e 39 117
e 39 125
e 39 128
e 39 137
e 39 154
e 39 172
e 39 178
e 39 217
e 39 225
e 39 236
e 39 240
e 40 42
e 40 48
e 40 65
e 40 68
e 40 72
e 40 91
e 40 104
e 40 105
e 40 109
e 40 120
e 40 125
e 40 127
e 40 150
e 40 174
e 40 177
e 40 196
e 40 204
e 40 207
e 40 211
e 40 226
e 40 238
e 40 239
e 40 247
e 41 50
e 41 59
e 41 62
e 41 65
e 41 68
e 41 92
e 41 97
e 41 98
e 41 109
e 41 111
e 41 124
e 41 129
e 41 134
e 41 150
e 41 160
e 41 163
e 41 167
e 41 179
e 41 182
e 41 196
e 41 198
e 41 210
e 41 217
e 41 221
e 41 243
e 42 43
e 42 48
e 42 53
e 42 55
e 42 69
e 42 70
e 42 81
e 42 86
e 42 90
e 42 103
e 42 146
e 42 149
e 42 152
e 42 164
e 42 166
e 42 167
e 42 171
e 42 175
e 42 176
e 42 204
e 42 219
e 42 223
e 42 224
e 43 44
e 43 52
e 43 54
e 43 73
e 43 84
e 43 86
e 43 90
e 43 99
e 43 101
e 43 115
e 43 130
e 43 144
e 43 165
e 43 171
e 43 172
e 43 173
e 43 180
e 43 185
e 43 199
e 43 200
e 43 216
e 43 236
e 43 237
e 44 46
e 44 56
e 44 89
e 44 92
e 44 94
e 44 121
e 44 125
e 44 127
e 44 129
e 44 138
e 44 150
e 44 151
e 44 152
e 44 160
e 44 161
e 44 165
e 44 193
e 44 219
e 44 226
e 44 230
e 44 245
e 44 249
e 45 47
e 45 59
e 45 62
e 45 68
e 45 70
e 45 76
e 45 93
e 45 114
e 45 115
e 45 117
e 45 120
e 45 127
e 45 138
e 45 159
e 45 160
e 45 188
e 45 189
e 45 204
e 45 216
e 45 220
e 45 223
e 45 224
e 46 47
e 46 70
e 46 80
e 46 81
e 46 108
e 46 111
e 46 125
e 46 152
e 46 167
e 46 191
e 46 202
e 46 220
e 46 227
e 46 229
e 46 242
e 46 243
e 46 244
e 47 53
e 47 93
e 47 114
e 47 115
e 47 122
e 47 124
e 47 131
e 47 139
e 47 163
e 47 168
e 47 173
e 47 180
e 47 184
e 47 195
e 47 200
e 47 212
e 47 220
e 47 223
e 47 242
e 48 52
e 48 54
e 48 66
e 48 92
e 48 95
e 48 107
e 48 112
e 48 118
e 48 120
e 48 129
e 48 133
e 48 136
e 48 139
e 48 161
e 48 168
e 48 169
e 48 181
e 48 196
e 48 197
e 48 200
e 48 213
e 48 228
e 48 232
e 49 66
e 49 68
e 49 71
e 49 86
e 49 103
e 49 109
e 49 120
e 49 127
e 49 130
e 49 133
e 49 161
e 49 166
e 49 184
e 49 188
e 49 196
e 49 209
e 49 232
e 49 235
e 49 236
e 49 242
e 50 61
e 50 63
e 50 73
e 50 84
e 50 90
e 50 93
e 50 125
e 50 132
e 50 144
e 50 174
e 50 175
e 50 182
e 50 219
e 50 245
e 50 250
e 51 52
e 51 53
e 51 57
e 51 68
e 51 78
e 51 91
e 51 110
e 51 113
e 51 138
e 51 144
e 51 154
e 51 172
e 51 223
e 51 249
e 52 82
e 52 84
e 52 116
e 52 148
e 52 157
e 52 158
e 52 161
e 52 162
e 52 163
e 52 175
e 52 194
e 52 196
e 52 209
e 52 211
e 52 213
e 52 220
e 52 226
e 52 228
e 52 229
e 52 240
e 53 59
e 53 62
e 53 63
e 53 64
e 53 75
e 53 79
e 53 83
e 53 89
e 53 107
e 53 115
e 53 121
e 53 122
e 53 138
e 53 143
e 53 152
e 53 155
e 53 158
e 53 164
e 53 182
e 53 196
e 53 199
e 53 208
e 53 211
e 53 220
e 53 222
e 53 225
e 53 226
e 54 69
e 54 76
e 54 77
e 54 80
e 54 90
e 54 93
e 54 95
e 54 119
e 54 122
e 54 123
e 54 127
e 54 148
e 54 150
e 54 159
e 54 161
e 54 162
e 54 171
e 54 182
e 54 193
e 54 213
e 55 57
e 55 65
e 55 68
e 55 69
e 55 75
e 55 80
e 55 92
e 55 96
e 55 100
e 55 102
e 55 112
e 55 147
e 55 163
e 55 189
e 55 204
e 55 221
e 55 249
e 56 68
e 56 73
e 56 76
e 56 87
e 56 88
e 56 112
e 56 113
e 56 116
e 56 135
e 56 142
e 56 145
e 56 171
e 56 174
e 56 197
e 56 203
e 56 215
e 56 220
e 56 236
e 56 237
e 57 62
e 57 64
e 57 65
e 57 70
e 57 74
e 57 101
e 57 113
e 57 135
e 57 137
e 57 142
e 57 148
e 57 163
e 57 188
e 57 190
e 57 192
e 57 194
e 57 207
e 57 216
e 57 240
e 57 250
e 58 77
e 58 86
e 58 87
e 58 117
e 58 131
e 58 142
e 58 146
e 58 150
e 58 183
e 58 242
e 59 60
e 59 64
e 59 67
e 59 72
e 59 78
e 59 79
e 59 87
e 59 101
e 59 102
e 59 115
e 59 154
e 59 163
e 59 167
e 59 173
e 59 177
e 59 180
e 59 181
e 59 190
e 59 200
e 59 206
e 59 235
e 60 64
e 60 99
e 60 147
e 60 150
e 60 154
e 60 161
e 60 162
e 60 164
e 60 171
e 60 181
e 60 194
e 60 204
e 60 206
e 60 215
e 60 219
e 61 73
e 61 129
e 61 142
e 61 154
e 61 157
e 61 164
e 61 173
e 61 188
e 61 194
e 61 196
e 61 198
e 61 203
e 61 205
e 61 210
e 61 214
e 61 219
e 61 226
e 62 75
e 62 85
e 62 93
e 62 118
e 62 130
e 62 152
e 62 162
e 62 171
e 62 177
e 62 196
e 62 197
e 62 198
e 62 199
e 62 203
e 62 224
e 63 65
e 63 118
e 63 134
e 63 145
e 63 147
e 63 148
e 63 151
e 63 154
e 63 169
e 63 184
e 63 227
e 63 243
e 63 247
e 64 97
e 64 110
e 64 116
e 64 118
e 64 129
e 64 173
e 64 178
e 64 181
e 64 186
e 65 85
e 65 90
e 65 97
e 65 104
e 65 108
e 65 119
e 65 122
e 65 130
e 65 137
e 65 141
e 65 143
e 65 146
e 65 152
e 65 156
e 65 172
e 65 184
e 65 197
e 65 210
e 65 226
e 65 241
e 65 243
e 66 78
e 66 85
e 66 98
e 66 113
e 66 127
e 66 139
e 66 141
e 66 147
e 66 162
e 66 171
e 66 186
e 66 195
e 66 197
e 66 199
e 66 204
e 66 205
e 67 85
e 67 86
e 67 88
e 67 101
e 67 108
e 67 119
e 67 131
e 67 133
e 67 162
e 67 163
e 67 188
e 67 198
e 67 203
e 67 205
e 67 213
e 67 225
e 67 231
e 67 235
e 68 82
e 68 96
e 68 99
e 68 102
e 68 105
e 68 108
e 68 123
e 68 135
e 68 137
e 68 140
e 68 145
e 68 147
e 68 169
e 68 183
e 68 185
e 68 201
e 68 210
e 68 212
e 68 217
e 68 243
e 68 245
e 69 76
e 69 79
e 69 97
e 69 106
e 69 112
e 69 120
e 69 126
e 69 128
e 69 143
e 69 169
e 69 178
e 69 179
e 69 186
e 69 209
e 69 218
e 69 226
e 69 228
e 69 231
e 70 106
e 70 112
e 70 124
e 70 130
e 70 135
e 70 136
e 70 139
e 70 149
e 70 176
e 70 182
e 70 194
e 70 203
e 70 208
e 70 210
e 70 213
e 70 214
e 70 220
e 70 224
e 70 227
e 70 228
e 70 244
e 71 84
e 71 85
e 71 91
e 71 95
e 71 120
e 71 122
e 71 136
e 71 142
e 71 152
e 71 158
e 71 172
e 71 175
e 71 184
e 71 186
e 71 199
e 71 206
e 71 207
e 71 216
e 71 223
e 71 225
e 71 239
e 71 241
e 71 246
e 71 249
e 72 75
e 72 79
e 72 81
e 72 90
e 72 95
e 72 97
e 72 98
e 72 105
e 72 146
e 72 147
e 72 158
e 72 204
e 72 207
e 72 248
e 73 80
e 73 90
e 73 96
e 73 97
e 73 106
e 73 127
e 73 131
e 73 135
e 73 136
e 73 145
e 73 151
e 73 152
e 73 165
e 73 177
e 73 188
e 73 208
e 73 219
e 73 222
e 73 225
e 73 241
e 74 83
e 74 95
e 74 106
e 74 107
e 74 112
e 74 134
e 74 140
e 74 166
e 74 173
e 74 181
e 74 186
e 74 200
e 74 224
e 74 227
e 74 235
e 74 242
e 74 247
e 74 248
e 75 84
e 75 86
e 75 96
e 75 99
e 75 111
e 75 113
e 75 123
e 75 132
e 75 148
e 75 162
e 75 170
e 75 179
e 75 183
e 75 187
e 75 190
e 75 246
e 76 95
e 76 102
e 76 103
e 76 114
e 76 119
e 76 141
e 76 144
e 76 157
e 76 159
e 76 166
e 76 175
e 76 183
e 76 186
e 76 189
e 76 211
e 76 216
e 76 219
e 76 239
e 76 241
e 76 243
e 76 246
e 76 249
e 77 80
e 77 85
e 77 86
e 77 89
e 77 103
e 77 108
e 77 119
e 77 125
e 77 126
e 77 131
e 77 133
e 77 134
e 77 138
e 77 144
e 77 147
e 77 149
e 77 150
e 77 163
e 77 190
e 77 192
e 77 195
e 77 223
e 77 224
e 77 225
e 77 237
e 77 248
e 78 80
e 78 104
e 78 116
e 78 126
e 78 127
e 78 157
e 78 162
e 78 172
e 78 174
e 78 183
e 79 96
e 79 110
e 79 125
e 79 127
e 79 137
e 79 138
e 79 143
e 79 161
e 79 167
e 79 179
e 79 196
e 79 202
e 79 222
e 79 223
e 79 233
e 79 234
e 79 241
e 80 94
e 80 100
e 80 101
e 80 109
e 80 113
e 80 116
e 80 122
e 80 129
e 80 138
e 80 141
e 80 154
e 80 157
e 80 168
e 80 173
e 80 174
e 80 182
e 80 184
e 80 207
e 80 218
e 80 223
e 80 225
e 80 237
e 80 241
e 80 247
e 81 86
e 81 88
e 81 90
e 81 91
e 81 106
e 81 107
e 81 113
e 81 126
e 81 134
e 81 145
e 81 182
e 81 189
e 81 218
e 81 220
e 81 229
e 81 236
e 82 93
e 82 94
e 82 103
e 82 119
e 82 122
e 82 130
e 82 132
e 82 133
e 82 134
e 82 146
e 82 150
e 82 176
e 82 185
e 82 204
e 82 212
e 82 215
e 82 228
e 82 230
e 82 235
e 82 238
e 82 239
e 82 247
e 83 88
e 83 90
e 83 101
e 83 107
e 83 117
e 83 120
e 83 126
e 83 127
e 83 135
e 83 161
e 83 183
e 83 184
e 83 186
e 83 192
e 83 195
e 83 201
e 83 243
e 83 250
e 84 96
e 84 101
e 84 103
e 84 104
e 84 117
e 84 121
e 84 129
e 84 151
e 84 164
e 84 172
e 84 177
e 84 180
e 84 190
e 84 192
e 84 194
e 84 212
e 84 219
e 84 238
e 84 240
e 84 241
e 85 88
e 85 98
e 85 107
e 85 116
e 85 134
e 85 152
e 85 168
e 85 172
e 85 179
e 85 205
e 85 220
e 85 230
e 85 241
e 85 242
e 86 111
e 86 142
e 86 154
e 86 155
e 86 164
e 86 192
e 86 195
e 86 203
e 86 209
e 86 213
e 86 226
e 86 228
e 87 122
e 87 133
e 87 136
e 87 141
e 87 152
e 87 163
e 87 181
e 87 185
e 87 186
e 87 200
e 87 210
e 87 226
e 87 232
e 87 247
e 87 250
e 88 93
e 88 124
e 88 134
e 88 147
e 88 160
e 88 189
e 88 194
e 88 195
e 88 232
e 88 234
e 88 246
e 88 247
e 89 106
e 89 115
e 89 120
e 89 125
e 89 130
e 89 142
e 89 168
e 89 171
e 89 172
e 89 197
e 89 204
e 89 205
e 89 206
e 89 226
e 89 227
e 89 234
e 90 91
e 90 113
e 90 129
e 90 134
e 90 135
e 90 156
e 90 157
e 90 165
e 90 180
e 90 181
e 90 184
e 90 187
e 90 197
e 90 209
e 90 215
e 90 216
e 90 225
e 91 111
e 91 113
e 91 125
e 91 126
e 91 128
e 91 130
e 91 143
e 91 146
e 91 150
e 91 153
e 91 171
e 91 172
e 91 188
e 91 196
e 91 200
e 91 220
e 91 225
e 91 226
e 91 241
e 92 95
e 92 115
e 92 137
e 92 145
e 92 154
e 92 156
e 92 161
e 92 167
e 92 174
e 92 176
e 92 188
e 92 204
e 92 214
e 92 215
e 92 225
e 92 231
e 92 246
e 93 96
e 93 102
e 93 117
e 93 120
e 93 137
e 93 140
e 93 154
e 93 155
e 93 165
e 93 167
e 93 173
e 93 183
e 93 206
e 93 226
e 93 228
e 93 234
e 93 236
e 93 239
e 93 242
e 94 97
e 94 101
e 94 114
e 94 130
e 94 133
e 94 152
e 94 157
e 94 165
e 94 167
e 94 173
e 94 182
e 94 195
e 94 211
e 94 217
e 94 223
e 94 243
e 95 100
e 95 109
e 95 117
e 95 120
e 95 129
e 95 130
e 95 133
e 95 135
e 95 143
e 95 147
e 95 151
e 95 155
e 95 156
e 95 163
e 95 207
e 95 225
e 95 229
e 95 234
e 95 236
e 95 237
e 95 247
e 96 104
e 96 108
e 96 130
e 96 131
e 96 145
e 96 151
e 96 153
e 96 161
e 96 170
e 96 171
e 96 172
e 96 189
e 96 198
e 96 210
e 96 220
e 96 232
e 97 101
e 97 106
e 97 139
e 97 148
e 97 165
e 97 177
e 97 179
e 97 186
e 97 213
e 97 221
e 97 236
e 97 241
e 98 103
e 98 105
e 98 117
e 98 127
e 98 134
e 98 143
e 98 146
e 98 156
e 98 163
e 98 168
e 98 195
e 98 197
e 98 198
e 98 220
e 98 245
e 99 111
e 99 129
e 99 131
e 99 140
e 99 183
e 99 201
e 99 229
e 99 239
e 100 103
e 100 108
e 100 125
e 100 128
e 100 131
e 100 173
e 100 185
e 100 201
e 100 205
e 100 215
e 100 216
e 100 224
e 100 235
e 100 246
e 101 124
e 101 151
e 101 153
e 101 157
e 101 170
e 101 179
e 101 187
e 101 210
e 101 214
e 101 218
e 101 224
e 101 226
e 101 239
e 101 242
e 101 244
e 102 109
e 102 122
e 102 135
e 102 171
e 102 172
e 102 175
e 102 188
e 102 194
e 102 202
e 102 216
e 102 232
e 102 237
e 102 242
e 102 247
e 102 248
e 103 112
e 103 113
e 103 114
e 103 116
e 103 144
e 103 147
e 103 151
e 103 159
e 103 185
e 103 191
e 103 202
e 103 217
e 103 219
e 103 221
e 103 225
e 103 229
e 103 234
e 103 243
e 104 105
e 104 138
e 104 149
e 104 173
e 104 199
e 104 221
e 104 231
e 105 106
e 105 111
e 105 112
e 105 116
e 105 123
e 105 131
e 105 136
e 105 146
e 105 153
e 105 162
e 105 167
e 105 178
e 105 182
e 105 201
e 105 214
e 105 216
e 105 218
e 105 236
e 105 239
e 105 241
e 106 125
e 106 131
e 106 152
e 106 154
e 106 171
e 106 174
e 106 185
e 106 229
e 106 235
e 106 244
e 106 246
e 107 119
e 107 138
e 107 141
e 107 145
e 107 147
e 107 148
e 107 153
e 107 154
e 107 162
e 107 163
e 107 164
e 107 181
e 107 198
e 107 221
e 107 246
e 107 247
e 108 115
e 108 120
e 108 130
e 108 135
e 108 136
e 108 183
e 108 197
e 108 199
e 108 210
e 108 223
e 108 235
e 108 245
e 108 249
e 109 128
e 109 131
e 109 137
e 109 138
e 109 140
e 109 165
e 109 191
e 109 209
e 109 222
e 109 232
e 109 234
e 109 239
e 109 245
e 110 120
e 110 137
e 110 139
e 110 140
e 110 147
e 110 168
e 110 172
e 110 194
e 110 197
e 110 218
e 110 233
e 110 245
e 110 249
e 111 122
e 111 124
e 111 126
e 111 137
e 111 145
e 111 163
e 111 164
e 111 170
e 111 175
e 111 176
e 111 181
e 111 199
e 111 209
e 111 213
e 111 229
e 111 245
e 111 248
e 112 115
e 112 118
e 112 123
e 112 151
e 112 158
e 112 177
e 112 189
e 112 190
e 112 198
e 112 205
e 112 213
e 112 214
e 112 217
e 112 226
e 112 227
e 113 132
e 113 134
e 113 143
e 113 154
e 113 183
e 113 187
e 113 195
e 113 219
e 113 227
e 113 229
e 113 237
e 113 250
e 114 123
e 114 127
e 114 144
e 114 150
e 114 165
e 114 168
e 114 205
e 114 218
e 114 219
e 114 225
e 114 231
e 114 241
e 114 242
e 115 116
e 115 125
e 115 144
e 115 161
e 115 181
e 115 192
e 115 221
e 115 222
e 115 229
e 115 230
e 115 238
e 115 240
e 116 119
e 116 122
e 116 124
e 116 131
e 116 132
e 116 149
e 116 163
e 116 171
e 116 172
e 116 176
e 116 184
e 116 185
e 116 186
e 116 187
e 116 210
e 116 226
e 116 231
e 117 118
e 117 119
e 117 123
e 117 128
e 117 132
e 117 134
e 117 138
e 117 139
e 117 145
e 117 164
e 117 165
e 117 170
e 117 212
e 117 213
e 117 223
e 117 245
e 118 137
e 118 139
e 118 143
e 118 147
e 118 163
e 118 179
e 118 182
e 118 188
e 118 207
e 118 224
e 118 238
e 119 129
e 119 141
e 119 153
e 119 163
e 119 183
e 119 193
e 119 199
e 119 214
e 119 232
e 119 248
e 120 123
e 120 134
e 120 139
e 120 143
e 120 154
e 120 161
e 120 170
e 120 176
e 120 182
e 120 194
e 120 195
e 120 211
e 120 218
e 120 222
e 120 240
e 121 134
e 121 142
e 121 154
e 121 194
e 121 198
e 121 207
e 121 215
e 121 234
e 121 248
e 121 250
e 122 129
e 122 130
e 122 145
e 122 154
e 122 170
e 122 174
e 122 191
e 122 194
e 122 198
e 122 200
e 122 218
e 122 248
e 123 131
e 123 139
e 123 140
e 123 155
e 123 156
e 123 166
e 123 182
e 123 187
e 123 191
e 123 200
e 123 201
e 123 204
e 123 213
e 123 216
e 123 222
e 123 223
e 123 224
e 123 243
e 123 244
e 124 126
e 124 138
e 124 149
e 124 154
e 124 156
e 124 166
e 124 169
e 124 174
e 124 177
e 124 181
e 124 184
e 124 190
e 124 194
e 124 246
e 124 247
e 125 129
e 125 137
e 125 155
e 125 160
e 125 162
e 125 167
e 125 178
e 125 194
e 125 196
e 125 215
e 125 220
e 125 221
e 125 223
e 125 226
e 125 240
e 125 244
e 126 132
e 126 134
e 126 142
e 126 147
e 126 157
e 126 169
e 126 181
e 126 183
e 126 201
e 126 225
e 126 232
e 126 248
e 127 131
e 127 139
e 127 171
e 127 179
e 127 209
e 127 218
e 127 222
e 127 224
e 127 228
e 127 234
e 127 245
e 127 249
e 128 131
e 128 136
e 128 144
e 128 152
e 128 159
e 128 182
e 128 187
e 128 196
e 128 201
e 128 208
e 128 210
e 128 213
e 128 217
e 128 218
e 128 226
e 128 231
e 128 241
e 128 242
e 129 140
e 129 145
e 129 148
e 129 151
e 129 158
e 129 167
e 129 236
e 129 242
e 129 246
e 130 137
e 130 147
e 130 154
e 130 156
e 130 157
e 130 174
e 130 175
e 130 181
e 130 186
e 130 197
e 130 214
e 130 218
e 130 237
e 130 242
e 130 248
e 131 135
e 131 138
e 131 145
e 131 158
e 131 160
e 131 172
e 131 183
e 131 229
e 131 231
e 131 236
e 132 134
e 132 138
e 132 153
e 132 162
e 132 164
e 132 174
e 132 175
e 132 185
e 132 191
e 132 192
e 132 200
e 132 207
e 132 210
e 132 211
e 132 217
e 132 220
e 132 240
e 133 145
e 133 147
e 133 156
e 133 164
e 133 174
e 133 228
e 133 238
e 133 241
e 133 247
e 134 140
e 134 141
e 134 146
e 134 164
e 134 183
e 134 231
e 134 236
e 134 239
e 135 141
e 135 142
e 135 152
e 135 168
e 135 169
e 135 173
e 135 174
e 135 185
e 135 195
e 135 198
e 135 201
e 135 204
e 135 215
e 135 226
e 135 245
e 135 246
e 136 143
e 136 148
e 136 162
e 136 164
e 136 178
e 136 183
e 136 185
e 136 207
e 136 215
e 136 224
e 136 226
e 136 230
e 136 237
e 137 146
e 137 154
e 137 166
e 137 171
e 137 190
e 137 197
e 137 218
e 137 219
e 137 229
e 137 237
e 138 153
e 138 179
e 138 207
e 138 211
e 138 214
e 138 220
e 138 221
e 138 230
e 138 233
e 139 152
e 139 190
e 139 195
e 139 215
e 139 221
e 139 229
e 139 230
e 139 244
e 139 248
e 140 142
e 140 143
e 140 145
e 140 148
e 140 162
e 140 163
e 140 168
e 140 177
e 140 178
e 140 181
e 140 183
e 140 197
e 140 216
e 140 218
e 140 225
e 141 162
e 141 203
e 141 209
e 141 213
e 141 228
e 141 231
e 141 249
e 142 152
e 142 155
e 142 174
e 142 191
e 142 203
e 142 248
e 143 148
e 143 166
e 143 180
e 143 185
e 143 208
e 143 223
e 143 229
e 143 238
e 143 243
e 144 145
e 144 153
e 144 154
e 144 158
e 144 168
e 144 194
e 144 197
e 144 206
e 144 212
e 144 218
e 144 221
e 144 242
e 144 249
e 145 163
e 145 166
e 145 174
e 145 194
e 145 199
e 145 207
e 145 209
e 145 219
e 145 232
e 145 234
e 145 250
e 146 165
e 146 168
e 146 180
e 146 185
e 146 191
e 146 202
e 146 204
e 146 211
e 146 237
e 147 166
e 147 194
e 147 197
e 147 205
e 147 223
e 147 248
e 148 153
e 148 163
e 148 184
e 148 188
e 148 229
e 148 233
e 148 238
e 148 240
e 148 246
e 149 155
e 149 165
e 149 172
e 149 182
e 149 185
e 149 195
e 149 199
e 149 232
e 149 246
e 150 153
e 150 155
e 150 220
e 150 224
e 150 239
e 151 157
e 151 167
e 151 194
e 151 203
e 151 208
e 151 225
e 151 227
e 151 235
e 152 163
e 152 172
e 152 180
e 152 185
e 152 208
e 152 209
e 152 211
e 152 237
e 153 166
e 153 184
e 153 197
e 153 203
e 153 206
e 153 208
e 153 221
e 153 223
e 153 228
e 153 231
e 154 163
e 154 176
e 154 181
e 154 184
e 154 186
e 154 192
e 154 220
e 154 224
e 154 229
e 154 230
e 154 232
e 155 157
e 155 182
e 155 213
e 155 237
e 155 243
e 155 244
e 155 245
e 155 246
e 155 250
e 156 165
e 156 191
e 156 196
e 156 214
e 156 215
e 156 218
e 156 250
e 157 159
e 157 162
e 157 185
e 157 216
e 157 217
e 157 222
e 157 243
e 158 163
e 158 187
e 158 202
e 158 209
e 158 210
e 158 247
e 159 160
e 159 164
e 159 176
e 159 181
e 159 183
e 159 187
e 159 191
e 159 194
e 159 206
e 159 210
e 159 213
e 159 231
e 159 242
e 159 246
e 160 170
e 160 184
e 160 200
e 160 205
e 160 209
e 160 240
e 160 249
e 161 163
e 161 178
e 161 182
e 161 194
e 161 212
e 161 217
e 161 231
e 161 233
e 161 234
e 161 235
e 161 237
e 161 246
e 162 168
e 162 187
e 162 192
e 162 194
e 162 214
e 162 215
e 162 218
e 162 221
e 162 235
e 162 242
e 162 249
e 163 200
e 163 206
e 163 210
e 163 215
e 163 219
e 163 228
e 163 229
e 164 166
e 164 170
e 164 181
e 164 182
e 164 188
e 164 194
e 164 198
e 164 203
e 164 206
e 164 207
e 164 217
e 164 218
e 164 219
e 164 237
e 164 242
e 164 248
e 165 168
e 165 180
e 165 184
e 165 189
e 165 194
e 165 213
e 165 217
e 165 218
e 165 223
e 165 227
e 165 232
e 165 243
e 166 185
e 166 190
e 166 210
e 166 215
e 166 227
e 166 235
e 166 249
e 167 168
e 167 174
e 167 198
e 167 215
e 167 218
e 167 226
e 167 237
e 168 181
e 168 187
e 168 190
e 168 201
e 168 202
e 168 203
e 168 222
e 168 223
e 168 248
e 169 183
e 169 192
e 169 244
e 170 178
e 170 180
e 170 186
e 170 190
e 170 226
e 170 241
e 171 194
e 171 230
e 172 181
e 172 198
e 172 202
e 172 210
e 172 212
e 172 213
e 172 225
e 172 229
e 172 237
e 172 243
e 172 244
e 172 250
e 173 176
e 173 186
e 173 190
e 173 216
e 173 217
e 173 238
e 173 249
e 174 186
e 174 187
e 174 194
e 175 176
e 175 179
e 175 191
e 175 196
e 175 210
e 175 244
e 175 245
e 176 187
e 176 194
e 176 196
e 176 219
e 176 250
e 177 197
e 177 203
e 177 204
e 177 206
e 177 209
e 177 216
e 177 222
e 177 226
e 177 234
e 177 247
e 178 183
e 178 184
e 178 187
e 178 189
e 178 194
e 178 204
e 178 210
e 178 211
e 178 212
e 178 245
e 178 246
e 178 249
e 179 197
e 179 198
e 179 202
e 179 216
e 179 225
e 179 237
e 179 244
e 180 199
e 180 206
e 180 212
e 180 222
e 180 228
e 180 250
e 181 183
e 181 197
e 181 218
e 181 230
e 181 241
e 181 243
e 181 244
e 182 200
e 182 202
e 182 205
e 182 213
e 182 215
e 182 221
e 182 232
e 182 234
e 182 243
e 182 244
e 183 195
e 183 200
e 183 206
e 183 214
e 183 226
e 183 231
e 183 240
e 183 243
e 184 186
e 184 196
e 184 200
e 184 203
e 184 211
e 184 214
e 184 217
e 184 224
e 184 228
e 184 241
e 185 189
e 185 211
e 185 214
e 185 219
e 185 224
e 186 191
e 186 202
e 186 206
e 186 215
e 186 217
e 186 223
e 186 226
e 186 227
e 187 203
e 187 207
e 187 209
e 187 220
e 187 221
e 187 244
e 188 193
e 188 199
e 188 207
e 188 228
e 188 233
e 189 191
e 189 206
e 189 212
e 189 242
e 190 202
e 190 206
e 190 211
e 190 215
e 190 229
e 190 234
e 190 239
e 190 242
e 191 202
e 191 217
e 191 226
e 192 218
e 192 221
e 192 225
e 193 199
e 193 202
e 193 216
e 193 217
e 193 219
e 193 224
e 193 228
e 193 229
e 193 230
e 193 240
e 193 243
e 194 207
e 194 211
e 194 219
e 194 226
e 194 236
e 195 197
e 195 198
e 195 200
e 195 217
e 195 226
e 195 227
e 195 238
e 195 247
e 196 201
e 196 205
e 196 208
e 196 226
e 196 227
e 196 230
e 196 234
e 197 205
e 197 226
e 197 244
e 198 205
e 198 229
e 198 244
e 199 203
e 199 221
e 199 234
e 199 239
e 200 216
e 200 220
e 201 204
e 201 234
e 201 238
e 201 250
e 202 205
e 202 214
e 203 204
e 203 222
e 203 228
e 203 230
e 203 232
e 203 248
e 204 221
e 204 239
e 205 213
e 205 215
e 205 223
e 205 236
e 206 217
e 206 237
e 206 241
e 206 245
e 207 218
e 207 220
e 207 230
e 207 236
e 207 250
e 208 216
e 208 223
e 208 231
e 208 234
e 208 242
e 209 210
e 209 213
e 209 222
e 210 211
e 210 227
e 210 238
e 210 240
e 210 244
e 211 213
e 211 229
e 211 235
e 211 239
e 211 243
e 211 250
e 212 215
e 212 217
e 212 225
e 212 233
e 212 235
e 213 227
e 213 235
e 213 236
e 213 246
e 214 228
e 214 238
e 214 242
e 215 216
e 215 235
e 215 236
e 216 220
e 216 221
e 217 219
e 217 224
e 217 232
e 217 244
e 218 221
e 218 250
e 219 232
e 219 243
e 220 224
e 220 245
e 221 222
e 221 229
e 221 245
e 222 233
e 222 235
e 223 236
e 223 238
e 223 239
e 223 243
e 224 229
e 224 244
e 225 232
e 226 244
e 228 235
e 228 239
e 228 241
e 229 244
e 229 245
e 231 244
e 232 237
e 234 240
e 235 246
e 236 239
e 236 248
e 237 246
e 239 241
e 239 249
e 240 241
e 240 242
e 240 248
e 240 250
e 242 248
e 247 249
